NAME: random_10_7
TYPE: TSP
COMMENT: random_10_7
DIMENSION: 10
EDGE_WEIGHT_TYPE: EUC_2D
NODE_COORD_SECTION
1 432 147
2 331 463
3 58 442
4 124 76
5 27 279
6 216 319
7 238 253
8 187 255
9 339 264
10 334 327
